     Program PWSCF v.6.4.1 starts on  1Jul2020 at  1:15:52

     K-points division:     npool     =       4
     Waiting for input...
     Reading input from standard input
     Message from routine read_cards :
     DEPRECATED: no units specified in CELL_PARAMETERS card
Warning: card &IONS ignored
Warning: card / ignored
Warning: card &CELL ignored
Warning: card / ignored

     Current dimensions of program PWSCF are:
     Max number of different atomic species (ntypx) = 10
     Max number of k-points (npk) =  40000
     Max angular momentum in pseudopotentials (lmaxx) =  3
               file b.cpi.UPF: wavefunction(s)  3d 4f renormalized
               file n.cpi.UPF: wavefunction(s)  3d 4f renormalized

     Subspace diagonalization in iterative solution of the eigenvalue problem:
     a serial algorithm will be used

     Message from routine setup:
     DEPRECATED: symmetry with ibrav=0, use correct ibrav instead

     bravais-lattice index     =            0
     lattice parameter (alat)  =       4.7319  a.u.
     unit-cell volume          =     734.0406 (a.u.)^3
     number of atoms/cell      =            2
     number of atomic types    =            2
     number of electrons       =         8.00
     number of Kohn-Sham states=           16
     kinetic-energy cutoff     =      70.0000  Ry
     charge density cutoff     =     280.0000  Ry
     convergence threshold     =      1.0E-10
     mixing beta               =       0.7000
     number of iterations used =            8  plain     mixing
     Exchange-correlation      = SLA  PZ   NOGX NOGC ( 1  1  0  0 0 0)

     celldm(1)=   4.731874  celldm(2)=   0.000000  celldm(3)=   0.000000
     celldm(4)=   0.000000  celldm(5)=   0.000000  celldm(6)=   0.000000

     crystal axes: (cart. coord. in units of alat)
               a(1) = (   1.000000   0.000000   0.000000 )
               a(2) = (  -0.500000   0.866025   0.000000 )
               a(3) = (   0.000000   0.000000   8.000000 )

     reciprocal axes: (cart. coord. in units 2 pi/alat)
               b(1) = (  1.000000  0.577350  0.000000 )
               b(2) = (  0.000000  1.154701  0.000000 )
               b(3) = (  0.000000  0.000000  0.125000 )

     PseudoPot. # 1 for B  read from file:
     ./b.cpi.UPF
     MD5 check sum: aadced629ac320abbac2d4088521b25e
     Pseudo is Norm-conserving + core correction, Zval =  3.0
     Generated by new atomic code, or converted to UPF format
     Using radial grid of  453 points,  3 beta functions with:
                l(1) =   0
                l(2) =   1
                l(3) =   2

     PseudoPot. # 2 for N  read from file:
     ./n.cpi.UPF
     MD5 check sum: ff6dad263d6aed986b71703111ab3f52
     Pseudo is Norm-conserving, Zval =  5.0
     Generated by new atomic code, or converted to UPF format
     Using radial grid of  467 points,  3 beta functions with:
                l(1) =   0
                l(2) =   1
                l(3) =   2

     atomic species   valence    mass     pseudopotential
        B              3.00    10.81100     B ( 1.00)
        N              5.00    14.00700     N ( 1.00)

     12 Sym. Ops. (no inversion) found

                                    s                        frac. trans.

      isym =  1     identity

 cryst.   s( 1) = (     1          0          0      )
                  (     0          1          0      )
                  (     0          0          1      )

 cart.    s( 1) = (  1.0000000  0.0000000  0.0000000 )
                  (  0.0000000  1.0000000  0.0000000 )
                  (  0.0000000  0.0000000  1.0000000 )

      isym =  2     180 deg rotation - cart. axis [0,1,0]

[...]

      isym =  3     120 deg rotation - cryst. axis [0,0,1]

[...]

      isym =  6     180 deg rotation - cryst. axis [2,1,0]

[...]

      isym =  7     inv. 180 deg rotation - cart. axis [0,0,1]

[...]

      isym =  8     inv. 180 deg rotation - cart. axis [1,0,0]

[...]

      isym =  9     inv.  60 deg rotation - cryst. axis [0,0,1]

 cryst.   s( 9) = (    -1         -1          0      )
                  (     1          0          0      )
                  (     0          0         -1      )

 cart.    s( 9) = ( -0.5000000  0.8660254  0.0000000 )
                  ( -0.8660254 -0.5000000  0.0000000 )
                  (  0.0000000  0.0000000 -1.0000000 )

[...]

 cryst.   s(10) = (     0          1          0      )
                  (    -1         -1          0      )
                  (     0          0         -1      )

 cart.    s(10) = ( -0.5000000 -0.8660254  0.0000000 )
                  (  0.8660254 -0.5000000  0.0000000 )
                  (  0.0000000  0.0000000 -1.0000000 )

[...]

      isym = 12     inv. 180 deg rotation - cryst. axis [1,1,0]

 cryst.   s(12) = (     0         -1          0      )
                  (    -1          0          0      )
                  (     0          0          1      )

 cart.    s(12) = (  0.5000000 -0.8660254  0.0000000 )
                  ( -0.8660254 -0.5000000  0.0000000 )
                  (  0.0000000  0.0000000  1.0000000 )

   Cartesian axes

     site n.     atom                  positions (alat units)
         1           B   tau(   1) = (  -0.0000000   0.5773503   4.0000000  )
         2           N   tau(   2) = (   0.5000000   0.2886751   4.0000000  )

   Crystallographic axes

     site n.     atom                  positions (cryst. coord.)
         1           B   tau(   1) = (  0.3333333  0.6666667  0.5000000  )
         2           N   tau(   2) = (  0.6666667  0.3333333  0.5000000  )

     number of k points=   156
                       cart. coord. in units 2pi/alat
        k(    1) = (   0.0208333   0.0360844   0.0000000), wk =   0.0069444
        k(    2) = (   0.0208333   0.0841969   0.0000000), wk =   0.0138889
        k(    3) = (   0.0208333   0.1323094   0.0000000), wk =   0.0138889
        k(    4) = (   0.0208333   0.1804220   0.0000000), wk =   0.0138889
        k(    5) = (   0.0208333   0.2285345   0.0000000), wk =   0.0138889
        k(    6) = (   0.0208333   0.2766470   0.0000000), wk =   0.0138889
        k(    7) = (   0.0208333   0.3247595   0.0000000), wk =   0.0138889
        k(    8) = (   0.0208333   0.3728720   0.0000000), wk =   0.0138889
        k(    9) = (   0.0208333   0.4209846   0.0000000), wk =   0.0138889
        k(   10) = (   0.0208333   0.4690971   0.0000000), wk =   0.0138889
        k(   11) = (   0.0208333   0.5172096   0.0000000), wk =   0.0138889
        k(   12) = (   0.0208333   0.5653221   0.0000000), wk =   0.0138889
        k(   13) = (   0.0208333  -0.5412659   0.0000000), wk =   0.0138889
        k(   14) = (   0.0208333  -0.4931534   0.0000000), wk =   0.0138889
        k(   15) = (   0.0208333  -0.4450408   0.0000000), wk =   0.0138889
        k(   16) = (   0.0208333  -0.3969283   0.0000000), wk =   0.0138889
        k(   17) = (   0.0208333  -0.3488158   0.0000000), wk =   0.0138889
        k(   18) = (   0.0208333  -0.3007033   0.0000000), wk =   0.0138889
        k(   19) = (   0.0208333  -0.2525907   0.0000000), wk =   0.0138889
        k(   20) = (   0.0208333  -0.2044782   0.0000000), wk =   0.0138889
        k(   21) = (   0.0208333  -0.1563657   0.0000000), wk =   0.0138889
        k(   22) = (   0.0208333  -0.1082532   0.0000000), wk =   0.0138889
        k(   23) = (   0.0208333  -0.0601407   0.0000000), wk =   0.0138889
        k(   24) = (   0.0208333  -0.0120281   0.0000000), wk =   0.0069444
        k(   25) = (   0.0625000   0.1082532   0.0000000), wk =   0.0069444
        k(   26) = (   0.0625000   0.1563657   0.0000000), wk =   0.0138889
        k(   27) = (   0.0625000   0.2044782   0.0000000), wk =   0.0138889
        k(   28) = (   0.0625000   0.2525907   0.0000000), wk =   0.0138889
        k(   29) = (   0.0625000   0.3007033   0.0000000), wk =   0.0138889
        k(   30) = (   0.0625000   0.3488158   0.0000000), wk =   0.0138889
        k(   31) = (   0.0625000   0.3969283   0.0000000), wk =   0.0138889
        k(   32) = (   0.0625000   0.4450408   0.0000000), wk =   0.0138889
        k(   33) = (   0.0625000   0.4931534   0.0000000), wk =   0.0138889
        k(   34) = (   0.0625000   0.5412659   0.0000000), wk =   0.0138889
        k(   35) = (   0.0625000   0.5893784   0.0000000), wk =   0.0138889
        k(   36) = (   0.0625000  -0.5172096   0.0000000), wk =   0.0138889
        k(   37) = (   0.0625000  -0.4690971   0.0000000), wk =   0.0138889
        k(   38) = (   0.0625000  -0.4209846   0.0000000), wk =   0.0138889
        k(   39) = (   0.0625000  -0.3728720   0.0000000), wk =   0.0138889
        k(   40) = (   0.0625000  -0.3247595   0.0000000), wk =   0.0138889
        k(   41) = (   0.0625000  -0.2766470   0.0000000), wk =   0.0138889
        k(   42) = (   0.0625000  -0.2285345   0.0000000), wk =   0.0138889
        k(   43) = (   0.0625000  -0.1804220   0.0000000), wk =   0.0138889
        k(   44) = (   0.0625000  -0.1323094   0.0000000), wk =   0.0138889
        k(   45) = (   0.0625000  -0.0841969   0.0000000), wk =   0.0138889
        k(   46) = (   0.0625000  -0.0360844   0.0000000), wk =   0.0069444
        k(   47) = (   0.1041667   0.1804220   0.0000000), wk =   0.0069444
        k(   48) = (   0.1041667   0.2285345   0.0000000), wk =   0.0138889
        k(   49) = (   0.1041667   0.2766470   0.0000000), wk =   0.0138889
        k(   50) = (   0.1041667   0.3247595   0.0000000), wk =   0.0138889
        k(   51) = (   0.1041667   0.3728720   0.0000000), wk =   0.0138889
        k(   52) = (   0.1041667   0.4209846   0.0000000), wk =   0.0138889
        k(   53) = (   0.1041667   0.4690971   0.0000000), wk =   0.0138889
        k(   54) = (   0.1041667   0.5172096   0.0000000), wk =   0.0138889
        k(   55) = (   0.1041667   0.5653221   0.0000000), wk =   0.0138889
        k(   56) = (   0.1041667   0.6134347   0.0000000), wk =   0.0138889
        k(   57) = (   0.1041667  -0.4931534   0.0000000), wk =   0.0138889
        k(   58) = (   0.1041667  -0.4450408   0.0000000), wk =   0.0138889
        k(   59) = (   0.1041667  -0.3969283   0.0000000), wk =   0.0138889
        k(   60) = (   0.1041667  -0.3488158   0.0000000), wk =   0.0138889
[...]
        k(  142) = (   0.3541667  -0.3007033   0.0000000), wk =   0.0138889
        k(  143) = (   0.3541667  -0.2525907   0.0000000), wk =   0.0138889
        k(  144) = (   0.3541667  -0.2044782   0.0000000), wk =   0.0069444
        k(  145) = (   0.3958333   0.6856034   0.0000000), wk =   0.0069444
        k(  146) = (   0.3958333   0.7337160   0.0000000), wk =   0.0138889
        k(  147) = (   0.3958333   0.7818285   0.0000000), wk =   0.0138889
        k(  148) = (   0.3958333  -0.3247595   0.0000000), wk =   0.0138889
        k(  149) = (   0.3958333  -0.2766470   0.0000000), wk =   0.0138889
        k(  150) = (   0.3958333  -0.2285345   0.0000000), wk =   0.0069444
        k(  151) = (   0.4375000   0.7577722   0.0000000), wk =   0.0069444
        k(  152) = (   0.4375000   0.8058848   0.0000000), wk =   0.0138889
        k(  153) = (   0.4375000  -0.3007033   0.0000000), wk =   0.0138889
        k(  154) = (   0.4375000  -0.2525907   0.0000000), wk =   0.0069444
        k(  155) = (   0.4791667   0.8299410   0.0000000), wk =   0.0069444
        k(  156) = (   0.4791667  -0.2766470   0.0000000), wk =   0.0069444

                       cryst. coord.
        k(    1) = (   0.0208333   0.0208333   0.0000000), wk =   0.0069444
        k(    2) = (   0.0208333   0.0625000   0.0000000), wk =   0.0138889
        k(    3) = (   0.0208333   0.1041667   0.0000000), wk =   0.0138889
        k(    4) = (   0.0208333   0.1458333   0.0000000), wk =   0.0138889
        k(    5) = (   0.0208333   0.1875000   0.0000000), wk =   0.0138889
        k(    6) = (   0.0208333   0.2291667   0.0000000), wk =   0.0138889
        k(    7) = (   0.0208333   0.2708333   0.0000000), wk =   0.0138889
        k(    8) = (   0.0208333   0.3125000   0.0000000), wk =   0.0138889
        k(    9) = (   0.0208333   0.3541667   0.0000000), wk =   0.0138889
        k(   10) = (   0.0208333   0.3958333   0.0000000), wk =   0.0138889
        k(   11) = (   0.0208333   0.4375000   0.0000000), wk =   0.0138889
        k(   12) = (   0.0208333   0.4791667   0.0000000), wk =   0.0138889
        k(   13) = (   0.0208333  -0.4791667   0.0000000), wk =   0.0138889
        k(   14) = (   0.0208333  -0.4375000   0.0000000), wk =   0.0138889
        k(   15) = (   0.0208333  -0.3958333   0.0000000), wk =   0.0138889
        k(   16) = (   0.0208333  -0.3541667   0.0000000), wk =   0.0138889
        k(   17) = (   0.0208333  -0.3125000   0.0000000), wk =   0.0138889
        k(   18) = (   0.0208333  -0.2708333   0.0000000), wk =   0.0138889
        k(   19) = (   0.0208333  -0.2291667   0.0000000), wk =   0.0138889
        k(   20) = (   0.0208333  -0.1875000   0.0000000), wk =   0.0138889
        k(   21) = (   0.0208333  -0.1458333   0.0000000), wk =   0.0138889
        k(   22) = (   0.0208333  -0.1041667   0.0000000), wk =   0.0138889
        k(   23) = (   0.0208333  -0.0625000   0.0000000), wk =   0.0138889
        k(   24) = (   0.0208333  -0.0208333   0.0000000), wk =   0.0069444
        k(   25) = (   0.0625000   0.0625000   0.0000000), wk =   0.0069444
        k(   26) = (   0.0625000   0.1041667   0.0000000), wk =   0.0138889
        k(   27) = (   0.0625000   0.1458333   0.0000000), wk =   0.0138889
        k(   28) = (   0.0625000   0.1875000   0.0000000), wk =   0.0138889
        k(   29) = (   0.0625000   0.2291667   0.0000000), wk =   0.0138889
        k(   30) = (   0.0625000   0.2708333   0.0000000), wk =   0.0138889
        k(   31) = (   0.0625000   0.3125000   0.0000000), wk =   0.0138889
        k(   32) = (   0.0625000   0.3541667   0.0000000), wk =   0.0138889
        k(   33) = (   0.0625000   0.3958333   0.0000000), wk =   0.0138889
        k(   34) = (   0.0625000   0.4375000   0.0000000), wk =   0.0138889
        k(   35) = (   0.0625000   0.4791667   0.0000000), wk =   0.0138889
        k(   36) = (   0.0625000  -0.4791667   0.0000000), wk =   0.0138889
        k(   37) = (   0.0625000  -0.4375000   0.0000000), wk =   0.0138889
        k(   38) = (   0.0625000  -0.3958333   0.0000000), wk =   0.0138889
        k(   39) = (   0.0625000  -0.3541667   0.0000000), wk =   0.0138889
        k(   40) = (   0.0625000  -0.3125000   0.0000000), wk =   0.0138889
        k(   41) = (   0.0625000  -0.2708333   0.0000000), wk =   0.0138889
        k(   42) = (   0.0625000  -0.2291667   0.0000000), wk =   0.0138889
        k(   43) = (   0.0625000  -0.1875000   0.0000000), wk =   0.0138889
        k(   44) = (   0.0625000  -0.1458333   0.0000000), wk =   0.0138889
        k(   45) = (   0.0625000  -0.1041667   0.0000000), wk =   0.0138889
        k(   46) = (   0.0625000  -0.0625000   0.0000000), wk =   0.0069444
        k(   47) = (   0.1041667   0.1041667   0.0000000), wk =   0.0069444
        k(   48) = (   0.1041667   0.1458333   0.0000000), wk =   0.0138889
        k(   49) = (   0.1041667   0.1875000   0.0000000), wk =   0.0138889
        k(   50) = (   0.1041667   0.2291667   0.0000000), wk =   0.0138889
        k(   51) = (   0.1041667   0.2708333   0.0000000), wk =   0.0138889
        k(   52) = (   0.1041667   0.3125000   0.0000000), wk =   0.0138889
        k(   53) = (   0.1041667   0.3541667   0.0000000), wk =   0.0138889
        k(   54) = (   0.1041667   0.3958333   0.0000000), wk =   0.0138889
        k(   55) = (   0.1041667   0.4375000   0.0000000), wk =   0.0138889
        k(   56) = (   0.1041667   0.4791667   0.0000000), wk =   0.0138889
        k(   57) = (   0.1041667  -0.4791667   0.0000000), wk =   0.0138889
        k(   58) = (   0.1041667  -0.4375000   0.0000000), wk =   0.0138889
        k(   59) = (   0.1041667  -0.3958333   0.0000000), wk =   0.0138889
        k(   60) = (   0.1041667  -0.3541667   0.0000000), wk =   0.0138889
[...]
        k(  142) = (   0.3541667  -0.4375000   0.0000000), wk =   0.0138889
        k(  143) = (   0.3541667  -0.3958333   0.0000000), wk =   0.0138889
        k(  144) = (   0.3541667  -0.3541667   0.0000000), wk =   0.0069444
        k(  145) = (   0.3958333   0.3958333   0.0000000), wk =   0.0069444
        k(  146) = (   0.3958333   0.4375000   0.0000000), wk =   0.0138889
        k(  147) = (   0.3958333   0.4791667   0.0000000), wk =   0.0138889
        k(  148) = (   0.3958333  -0.4791667   0.0000000), wk =   0.0138889
        k(  149) = (   0.3958333  -0.4375000   0.0000000), wk =   0.0138889
        k(  150) = (   0.3958333  -0.3958333   0.0000000), wk =   0.0069444
        k(  151) = (   0.4375000   0.4375000   0.0000000), wk =   0.0069444
        k(  152) = (   0.4375000   0.4791667   0.0000000), wk =   0.0138889
        k(  153) = (   0.4375000  -0.4791667   0.0000000), wk =   0.0138889
        k(  154) = (   0.4375000  -0.4375000   0.0000000), wk =   0.0069444
        k(  155) = (   0.4791667   0.4791667   0.0000000), wk =   0.0069444
        k(  156) = (   0.4791667  -0.4791667   0.0000000), wk =   0.0069444

     Check: negative core charge=   -0.000010

     Initial potential from superposition of free atoms

     starting charge    7.99976, renormalised to    8.00000

     negative rho (up, down):  1.211E-04 0.000E+00
     Starting wfcs are   32 randomized atomic wfcs

     Self-consistent Calculation

     iteration #  1     ecut=    70.00 Ry     beta= 0.70
     Davidson diagonalization with overlap
     ethr =  1.00E-02,  avg # of iterations =  7.4

     negative rho (up, down):  3.450E-05 0.000E+00

     total energy              =     -26.45219887 Ry
     Harris-Foulkes estimate   =     -26.73967449 Ry
     estimated scf accuracy    <       0.41121568 Ry

[...]

     negative rho (up, down):  2.661E-07 0.000E+00

[...]

     total energy              =     -26.58915734 Ry
     Harris-Foulkes estimate   =     -26.58915734 Ry
     estimated scf accuracy    <          2.7E-10 Ry

     iteration #  9     ecut=    70.00 Ry     beta= 0.70
     Davidson diagonalization with overlap
     ethr =  3.43E-12,  avg # of iterations =  4.5

     End of self-consistent calculation

          k = 0.0208 0.0361 0.0000 (  7275 PWs)   bands (ev):

   -21.7909  -9.6358  -5.8569  -5.8022   0.4032   1.1940   1.2310   2.2891
     2.5855   4.2669   4.8290   6.8730   7.0714   7.2046   7.5987   8.9051

     occupation numbers
     1.0000   1.0000   1.0000   1.0000   0.0000   0.0000   0.0000   0.0000
     0.0000   0.0000   0.0000   0.0000   0.0000   0.0000   0.0000   0.0000

[...]

          k = 0.4792-0.2766 0.0000 (  7276 PWs)   bands (ev):

   -18.7028 -13.1828  -8.5333  -5.3314   0.3407   5.3488   7.7353   8.3778
     8.5142   8.9866   9.2947   9.8135   9.8162   9.9341  10.6579  11.1473

     occupation numbers
     1.0000   1.0000   1.0000   1.0000   0.0000   0.0000   0.0000   0.0000
     0.0000   0.0000   0.0000   0.0000   0.0000   0.0000   0.0000   0.0000

     highest occupied, lowest unoccupied level (ev):    -4.3924    0.1988

!    total energy              =     -26.58915734 Ry
     Harris-Foulkes estimate   =     -26.58915734 Ry
     estimated scf accuracy    <          1.5E-12 Ry

     The total energy is the sum of the following terms:

     one-electron contribution =    -221.33098352 Ry
     hartree contribution      =     112.11380871 Ry
     xc contribution           =      -8.15783883 Ry
     ewald contribution        =      90.78585631 Ry

     convergence has been achieved in   9 iterations

     Forces acting on atoms (cartesian axes, Ry/au):

     atom    1 type  1   force =     0.00000000   -0.00000000    0.00000000
     atom    2 type  2   force =     0.00000000    0.00000000    0.00000000
     The non-local contrib.  to forces
     atom    1 type  1   force =    -0.00000000   -0.00000000    0.00000000
     atom    2 type  2   force =     0.00000000    0.00000000    0.00000000
     The ionic contribution  to forces
     atom    1 type  1   force =     0.00000000    0.00000000    0.00000000
     atom    2 type  2   force =    -0.00000000   -0.00000000   -0.00000000
     The local contribution  to forces
     atom    1 type  1   force =    -0.00000000    0.00000000    0.00000000
     atom    2 type  2   force =    -0.00000000    0.00000000    0.00000000
     The core correction contribution to forces
     atom    1 type  1   force =    -0.00000000    0.00000000    0.00000000
     atom    2 type  2   force =     0.00000000    0.00000000    0.00000000
     The Hubbard contrib.    to forces
     atom    1 type  1   force =     0.00000000    0.00000000    0.00000000
     atom    2 type  2   force =     0.00000000    0.00000000    0.00000000
     The SCF correction term to forces
     atom    1 type  1   force =     0.00000000   -0.00000000   -0.00000000
     atom    2 type  2   force =    -0.00000000   -0.00000000    0.00000000

     Total force =     0.000000     Total SCF correction =     0.000000

     Computing stress (Cartesian axis) and pressure

          total   stress  (Ry/bohr**3)                   (kbar)     P=  -12.86
  -0.00012396   0.00000000   0.00000000        -18.24      0.00      0.00
   0.00000000  -0.00012396  -0.00000000          0.00    -18.24     -0.00
   0.00000000   0.00000000  -0.00001431          0.00      0.00     -2.10

     kinetic stress (kbar)   2426.12     -0.00      0.00
                               -0.00   2426.12      0.00
                                0.00      0.00   2645.12

     local   stress (kbar) -45955.97     -0.00      0.00
                               -0.00 -45955.97      0.00
                                0.00      0.00  45952.33

     nonloc. stress (kbar)   -272.38      0.00     -0.00
                                0.00   -272.38      0.00
                               -0.00      0.00   -269.14

     hartree stress (kbar)  22053.84      0.00      0.00
                                0.00  22053.84      0.00
                                0.00      0.00 -21639.57

     exc-cor stress (kbar)   -294.56      0.00      0.00
                                0.00   -294.56      0.00
                                0.00      0.00   -294.56

     corecor stress (kbar)   -182.52     -0.00      0.00
                               -0.00   -182.52      0.00
                                0.00      0.00   -175.69

     ewald   stress (kbar)  22207.24      0.00     -0.00
                                0.00  22207.24     -0.00
                               -0.00     -0.00 -26220.58

     hubbard stress (kbar)      0.00      0.00      0.00
                                0.00      0.00      0.00
                                0.00      0.00      0.00

     london  stress (kbar)      0.00      0.00      0.00
                                0.00      0.00      0.00
                                0.00      0.00      0.00

     DFT-D3  stress (kbar)      0.00      0.00      0.00
                                0.00      0.00      0.00
                                0.00      0.00      0.00

     XDM     stress (kbar)      0.00      0.00      0.00
                                0.00      0.00      0.00
                                0.00      0.00      0.00

     dft-nl  stress (kbar)      0.00      0.00      0.00
                                0.00      0.00      0.00
                                0.00      0.00      0.00

     TS-vdW  stress (kbar)      0.00      0.00      0.00
                                0.00      0.00      0.00
                                0.00      0.00      0.00

     Writing output data file BN.save/

     General routines

     Parallel routines

   This run was terminated on:   1:17: 0   1Jul2020

   JOB DONE.