     Program PWSCF v.6.5 starts on 13Aug2021 at 16:56:48

     K-points division:     npool     =       8
     Waiting for input...
     Reading input from standard input
Warning: card &IONS ignored
Warning: card / ignored
Warning: card &CELL ignored
Warning: card / ignored

     Current dimensions of program PWSCF are:
     Max number of different atomic species (ntypx) = 10
     Max number of k-points (npk) =  40000
     Max angular momentum in pseudopotentials (lmaxx) =  3
               file b.cpi.UPF: wavefunction(s)  3d 4f renormalized
               file n.cpi.UPF: wavefunction(s)  3d 4f renormalized

     Subspace diagonalization in iterative solution of the eigenvalue problem:
     a serial algorithm will be used

     bravais-lattice index     =            4
     lattice parameter (alat)  =       4.7319  a.u.
     unit-cell volume          =     244.0890 (a.u.)^3
     number of atoms/cell      =            4
     number of atomic types    =            2
     number of electrons       =        16.00
     number of Kohn-Sham states=           12
     kinetic-energy cutoff     =      70.0000  Ry
     charge density cutoff     =     280.0000  Ry
     convergence threshold     =      1.0E-10
     mixing beta               =       0.7000
     number of iterations used =            8  plain     mixing
     Exchange-correlation= SLA  PZ   NOGX NOGC
                           (   1   1   0   0   0   0   0)

     celldm(1)=   4.731874  celldm(2)=   0.000000  celldm(3)=   2.660224
     celldm(4)=   0.000000  celldm(5)=   0.000000  celldm(6)=   0.000000

     crystal axes: (cart. coord. in units of alat)
               a(1) = (   1.000000   0.000000   0.000000 )
               a(2) = (  -0.500000   0.866025   0.000000 )
               a(3) = (   0.000000   0.000000   2.660224 )

     reciprocal axes: (cart. coord. in units 2 pi/alat)
               b(1) = (  1.000000  0.577350  0.000000 )
               b(2) = (  0.000000  1.154701  0.000000 )
               b(3) = (  0.000000  0.000000  0.375908 )

     PseudoPot. # 1 for B  read from file:
     ./b.cpi.UPF
     MD5 check sum: aadced629ac320abbac2d4088521b25e
     Pseudo is Norm-conserving + core correction, Zval =  3.0
     Generated by new atomic code, or converted to UPF format
     Using radial grid of  453 points,  3 beta functions with:
                l(1) =   0
                l(2) =   1
                l(3) =   2

     PseudoPot. # 2 for N  read from file:
     ./n.cpi.UPF
     MD5 check sum: ff6dad263d6aed986b71703111ab3f52
     Pseudo is Norm-conserving, Zval =  5.0
     Generated by new atomic code, or converted to UPF format
     Using radial grid of  467 points,  3 beta functions with:
                l(1) =   0
                l(2) =   1
                l(3) =   2

     atomic species   valence    mass     pseudopotential
        B              3.00    10.81100     B ( 1.00)
        N              5.00    14.00700     N ( 1.00)

     24 Sym. Ops., with inversion, found (12 have fractional translation)

                                    s                        frac. trans.

      isym =  1     identity

 cryst.   s( 1) = (     1          0          0      )
                  (     0          1          0      )
                  (     0          0          1      )

 cart.    s( 1) = (  1.0000000  0.0000000  0.0000000 )
                  (  0.0000000  1.0000000  0.0000000 )
                  (  0.0000000  0.0000000  1.0000000 )

      isym =  2     180 deg rotation - cart. axis [0,0,1]

 cryst.   s( 2) = (    -1          0          0      )    f =(  0.0000000 )
                  (     0         -1          0      )       (  0.0000000 )
                  (     0          0          1      )       (  0.5000000 )

 cart.    s( 2) = ( -1.0000000  0.0000000  0.0000000 )    f =(  0.0000000 )
                  (  0.0000000 -1.0000000  0.0000000 )       (  0.0000000 )
                  (  0.0000000  0.0000000  1.0000000 )       (  1.3301118 )

[...]

      isym =  4     180 deg rotation - cart. axis [1,0,0]

[...]

      isym =  5      60 deg rotation - cryst. axis [0,0,1]

[...]

 cryst.   s( 8) = (    -1         -1          0      )
                  (     1          0          0      )
                  (     0          0          1      )

 cart.    s( 8) = ( -0.5000000  0.8660254  0.0000000 )
                  ( -0.8660254 -0.5000000  0.0000000 )
                  (  0.0000000  0.0000000  1.0000000 )

[...]

 cryst.   s( 9) = (     0         -1          0      )    f =(  0.0000000 )
                  (    -1          0          0      )       (  0.0000000 )
                  (     0          0         -1      )       ( -0.5000000 )

 cart.    s( 9) = (  0.5000000 -0.8660254  0.0000000 )    f =(  0.0000000 )
                  ( -0.8660254 -0.5000000  0.0000000 )       (  0.0000000 )
                  (  0.0000000  0.0000000 -1.0000000 )       ( -1.3301118 )

[...]

 cryst.   s(10) = (     1          1          0      )    f =(  0.0000000 )
                  (     0         -1          0      )       ( -0.0000000 )
                  (     0          0         -1      )       ( -0.5000000 )

 cart.    s(10) = (  0.5000000  0.8660254  0.0000000 )    f =(  0.0000000 )
                  (  0.8660254 -0.5000000  0.0000000 )       ( -0.0000000 )
                  (  0.0000000  0.0000000 -1.0000000 )       ( -1.3301118 )

[...]

 cryst.   s(11) = (    -1         -1          0      )
                  (     0          1          0      )
                  (     0          0         -1      )

 cart.    s(11) = ( -0.5000000 -0.8660254  0.0000000 )
                  ( -0.8660254  0.5000000  0.0000000 )
                  (  0.0000000  0.0000000 -1.0000000 )

      isym = 12     180 deg rotation - cryst. axis [1,1,0]

[...]

      isym = 13     inversion

[...]

      isym = 14     inv. 180 deg rotation - cart. axis [0,0,1]

[...]

      isym = 16     inv. 180 deg rotation - cart. axis [1,0,0]

[...]

      isym = 17     inv.  60 deg rotation - cryst. axis [0,0,1]

[...]

 cryst.   s(22) = (    -1         -1          0      )    f =(  0.0000000 )
                  (     0          1          0      )       ( -0.0000000 )
                  (     0          0          1      )       (  0.5000000 )

 cart.    s(22) = ( -0.5000000 -0.8660254  0.0000000 )    f =(  0.0000000 )
                  ( -0.8660254  0.5000000  0.0000000 )       ( -0.0000000 )
                  (  0.0000000  0.0000000  1.0000000 )       (  1.3301118 )

[...]

      isym = 24     inv. 180 deg rotation - cryst. axis [1,1,0]

 cryst.   s(24) = (     0         -1          0      )
                  (    -1          0          0      )
                  (     0          0          1      )

 cart.    s(24) = (  0.5000000 -0.8660254  0.0000000 )
                  ( -0.8660254 -0.5000000  0.0000000 )
                  (  0.0000000  0.0000000  1.0000000 )

     point group D_6h(6/mmm)
     there are 12 classes
     the character table:

       E     2C6   2C3   C2    3C2'  3C2'' i     2S3   2S6   s_h   3s_d  3s_v
A_1g   1.00  1.00  1.00  1.00  1.00  1.00  1.00  1.00  1.00  1.00  1.00  1.00
A_2g   1.00  1.00  1.00  1.00 -1.00 -1.00  1.00  1.00  1.00  1.00 -1.00 -1.00
B_1g   1.00 -1.00  1.00 -1.00  1.00 -1.00  1.00 -1.00  1.00 -1.00  1.00 -1.00
B_2g   1.00 -1.00  1.00 -1.00 -1.00  1.00  1.00 -1.00  1.00 -1.00 -1.00  1.00
E_1g   2.00  1.00 -1.00 -2.00  0.00  0.00  2.00  1.00 -1.00 -2.00  0.00  0.00
E_2g   2.00 -1.00 -1.00  2.00  0.00  0.00  2.00 -1.00 -1.00  2.00  0.00  0.00
A_1u   1.00  1.00  1.00  1.00  1.00  1.00 -1.00 -1.00 -1.00 -1.00 -1.00 -1.00
A_2u   1.00  1.00  1.00  1.00 -1.00 -1.00 -1.00 -1.00 -1.00 -1.00  1.00  1.00
B_1u   1.00 -1.00  1.00 -1.00  1.00 -1.00 -1.00  1.00 -1.00  1.00 -1.00  1.00
B_2u   1.00 -1.00  1.00 -1.00 -1.00  1.00 -1.00  1.00 -1.00  1.00  1.00 -1.00
E_1u   2.00  1.00 -1.00 -2.00  0.00  0.00 -2.00 -1.00  1.00  2.00  0.00  0.00
E_2u   2.00 -1.00 -1.00  2.00  0.00  0.00 -2.00  1.00  1.00 -2.00  0.00  0.00

     the symmetry operations in each class and the name of the first element:

     E        1
          identity
     2C6      5    6
           60 deg rotation - cryst. axis [0,0,1]
     2C3      7    8
          120 deg rotation - cryst. axis [0,0,1]
     C2       2
          180 deg rotation - cart. axis [0,0,1]
     3C2'     4   12   11
          180 deg rotation - cart. axis [1,0,0]
     3C2''    3    9   10
          180 deg rotation - cart. axis [0,1,0]
     i       13
          inversion
     2S3     17   18
          inv.  60 deg rotation - cryst. axis [0,0,1]
     2S6     19   20
          inv. 120 deg rotation - cryst. axis [0,0,1]
     s_h     14
          inv. 180 deg rotation - cart. axis [0,0,1]
     3s_d    16   24   23
          inv. 180 deg rotation - cart. axis [1,0,0]
     3s_v    15   21   22
          inv. 180 deg rotation - cart. axis [0,1,0]

   Cartesian axes

     site n.     atom                  positions (alat units)
         1           B   tau(   1) = (  -0.0000000   0.5773503   0.6650559  )
         2           B   tau(   2) = (   0.5000000   0.2886751   1.9951677  )
         3           N   tau(   3) = (  -0.0000000   0.5773503   1.9951677  )
         4           N   tau(   4) = (   0.5000000   0.2886751   0.6650559  )

   Crystallographic axes

     site n.     atom                  positions (cryst. coord.)
         1           B   tau(   1) = (  0.3333333  0.6666667  0.2500000  )
         2           B   tau(   2) = (  0.6666667  0.3333333  0.7500000  )
         3           N   tau(   3) = (  0.3333333  0.6666667  0.7500000  )
         4           N   tau(   4) = (  0.6666667  0.3333333  0.2500000  )

     number of k points=   126
                       cart. coord. in units 2pi/alat
        k(    1) = (   0.0416667   0.0721688   0.0313257), wk =   0.0092593
        k(    2) = (   0.0416667   0.0721688   0.0939771), wk =   0.0092593
        k(    3) = (   0.0416667   0.0721688   0.1566284), wk =   0.0092593
        k(    4) = (   0.0416667   0.1683938   0.0313257), wk =   0.0185185
        k(    5) = (   0.0416667   0.1683938   0.0939771), wk =   0.0185185
        k(    6) = (   0.0416667   0.1683938   0.1566284), wk =   0.0185185
        k(    7) = (   0.0416667   0.2646189   0.0313257), wk =   0.0185185
        k(    8) = (   0.0416667   0.2646189   0.0939771), wk =   0.0185185
        k(    9) = (   0.0416667   0.2646189   0.1566284), wk =   0.0185185
        k(   10) = (   0.0416667   0.3608439   0.0313257), wk =   0.0185185
        k(   11) = (   0.0416667   0.3608439   0.0939771), wk =   0.0185185
        k(   12) = (   0.0416667   0.3608439   0.1566284), wk =   0.0185185
        k(   13) = (   0.0416667   0.4570690   0.0313257), wk =   0.0185185
        k(   14) = (   0.0416667   0.4570690   0.0939771), wk =   0.0185185
        k(   15) = (   0.0416667   0.4570690   0.1566284), wk =   0.0185185
        k(   16) = (   0.0416667   0.5532940   0.0313257), wk =   0.0185185
        k(   17) = (   0.0416667   0.5532940   0.0939771), wk =   0.0185185
        k(   18) = (   0.0416667   0.5532940   0.1566284), wk =   0.0185185
        k(   19) = (   0.0416667  -0.5051815   0.0313257), wk =   0.0185185
[...]
        k(   28) = (   0.0416667  -0.2165064   0.0313257), wk =   0.0185185
        k(   29) = (   0.0416667  -0.2165064   0.0939771), wk =   0.0185185
        k(   30) = (   0.0416667  -0.2165064   0.1566284), wk =   0.0185185
        k(   31) = (   0.0416667  -0.1202813   0.0313257), wk =   0.0185185
        k(   32) = (   0.0416667  -0.1202813   0.0939771), wk =   0.0185185
        k(   33) = (   0.0416667  -0.1202813   0.1566284), wk =   0.0185185
        k(   34) = (   0.0416667  -0.0240563   0.0313257), wk =   0.0092593
        k(   35) = (   0.0416667  -0.0240563   0.0939771), wk =   0.0092593
        k(   36) = (   0.0416667  -0.0240563   0.1566284), wk =   0.0092593
        k(   37) = (   0.1250000   0.2165064   0.0313257), wk =   0.0092593
        k(   38) = (   0.1250000   0.2165064   0.0939771), wk =   0.0092593
        k(   39) = (   0.1250000   0.2165064   0.1566284), wk =   0.0092593
        k(   40) = (   0.1250000   0.3127314   0.0313257), wk =   0.0185185
        k(   41) = (   0.1250000   0.3127314   0.0939771), wk =   0.0185185
        k(   42) = (   0.1250000   0.3127314   0.1566284), wk =   0.0185185
        k(   43) = (   0.1250000   0.4089564   0.0313257), wk =   0.0185185
        k(   44) = (   0.1250000   0.4089564   0.0939771), wk =   0.0185185
        k(   45) = (   0.1250000   0.4089564   0.1566284), wk =   0.0185185
        k(   46) = (   0.1250000   0.5051815   0.0313257), wk =   0.0185185
        k(   47) = (   0.1250000   0.5051815   0.0939771), wk =   0.0185185
        k(   48) = (   0.1250000   0.5051815   0.1566284), wk =   0.0185185
        k(   49) = (   0.1250000   0.6014065   0.0313257), wk =   0.0185185
        k(   50) = (   0.1250000   0.6014065   0.0939771), wk =   0.0185185
        k(   51) = (   0.1250000   0.6014065   0.1566284), wk =   0.0185185
        k(   52) = (   0.1250000  -0.4570690   0.0313257), wk =   0.0185185
        k(   53) = (   0.1250000  -0.4570690   0.0939771), wk =   0.0185185
        k(   54) = (   0.1250000  -0.4570690   0.1566284), wk =   0.0185185
        k(   55) = (   0.1250000  -0.3608439   0.0313257), wk =   0.0185185
        k(   56) = (   0.1250000  -0.3608439   0.0939771), wk =   0.0185185
        k(   57) = (   0.1250000  -0.3608439   0.1566284), wk =   0.0185185
        k(   58) = (   0.1250000  -0.2646189   0.0313257), wk =   0.0185185
        k(   59) = (   0.1250000  -0.2646189   0.0939771), wk =   0.0185185
        k(   60) = (   0.1250000  -0.2646189   0.1566284), wk =   0.0185185
[...]
        k(  112) = (   0.3750000   0.7457441   0.0313257), wk =   0.0185185
        k(  113) = (   0.3750000   0.7457441   0.0939771), wk =   0.0185185
        k(  114) = (   0.3750000   0.7457441   0.1566284), wk =   0.0185185
        k(  115) = (   0.3750000  -0.3127314   0.0313257), wk =   0.0185185
        k(  116) = (   0.3750000  -0.3127314   0.0939771), wk =   0.0185185
        k(  117) = (   0.3750000  -0.3127314   0.1566284), wk =   0.0185185
        k(  118) = (   0.3750000  -0.2165064   0.0313257), wk =   0.0092593
        k(  119) = (   0.3750000  -0.2165064   0.0939771), wk =   0.0092593
        k(  120) = (   0.3750000  -0.2165064   0.1566284), wk =   0.0092593
        k(  121) = (   0.4583333   0.7938566   0.0313257), wk =   0.0092593
        k(  122) = (   0.4583333   0.7938566   0.0939771), wk =   0.0092593
        k(  123) = (   0.4583333   0.7938566   0.1566284), wk =   0.0092593
        k(  124) = (   0.4583333  -0.2646189   0.0313257), wk =   0.0092593
        k(  125) = (   0.4583333  -0.2646189   0.0939771), wk =   0.0092593
        k(  126) = (   0.4583333  -0.2646189   0.1566284), wk =   0.0092593

                       cryst. coord.
        k(    1) = (   0.0416667   0.0416667   0.0833333), wk =   0.0092593
        k(    2) = (   0.0416667   0.0416667   0.2500000), wk =   0.0092593
        k(    3) = (   0.0416667   0.0416667   0.4166667), wk =   0.0092593
        k(    4) = (   0.0416667   0.1250000   0.0833333), wk =   0.0185185
        k(    5) = (   0.0416667   0.1250000   0.2500000), wk =   0.0185185
        k(    6) = (   0.0416667   0.1250000   0.4166667), wk =   0.0185185
        k(    7) = (   0.0416667   0.2083333   0.0833333), wk =   0.0185185
        k(    8) = (   0.0416667   0.2083333   0.2500000), wk =   0.0185185
        k(    9) = (   0.0416667   0.2083333   0.4166667), wk =   0.0185185
        k(   10) = (   0.0416667   0.2916667   0.0833333), wk =   0.0185185
        k(   11) = (   0.0416667   0.2916667   0.2500000), wk =   0.0185185
        k(   12) = (   0.0416667   0.2916667   0.4166667), wk =   0.0185185
        k(   13) = (   0.0416667   0.3750000   0.0833333), wk =   0.0185185
        k(   14) = (   0.0416667   0.3750000   0.2500000), wk =   0.0185185
        k(   15) = (   0.0416667   0.3750000   0.4166667), wk =   0.0185185
        k(   16) = (   0.0416667   0.4583333   0.0833333), wk =   0.0185185
        k(   17) = (   0.0416667   0.4583333   0.2500000), wk =   0.0185185
        k(   18) = (   0.0416667   0.4583333   0.4166667), wk =   0.0185185
        k(   19) = (   0.0416667  -0.4583333   0.0833333), wk =   0.0185185
        k(   20) = (   0.0416667  -0.4583333   0.2500000), wk =   0.0185185
        k(   21) = (   0.0416667  -0.4583333   0.4166667), wk =   0.0185185
        k(   22) = (   0.0416667  -0.3750000   0.0833333), wk =   0.0185185
        k(   23) = (   0.0416667  -0.3750000   0.2500000), wk =   0.0185185
        k(   24) = (   0.0416667  -0.3750000   0.4166667), wk =   0.0185185
        k(   25) = (   0.0416667  -0.2916667   0.0833333), wk =   0.0185185
        k(   26) = (   0.0416667  -0.2916667   0.2500000), wk =   0.0185185
        k(   27) = (   0.0416667  -0.2916667   0.4166667), wk =   0.0185185
        k(   28) = (   0.0416667  -0.2083333   0.0833333), wk =   0.0185185
        k(   29) = (   0.0416667  -0.2083333   0.2500000), wk =   0.0185185
        k(   30) = (   0.0416667  -0.2083333   0.4166667), wk =   0.0185185
        k(   31) = (   0.0416667  -0.1250000   0.0833333), wk =   0.0185185
        k(   32) = (   0.0416667  -0.1250000   0.2500000), wk =   0.0185185
        k(   33) = (   0.0416667  -0.1250000   0.4166667), wk =   0.0185185
        k(   34) = (   0.0416667  -0.0416667   0.0833333), wk =   0.0092593
        k(   35) = (   0.0416667  -0.0416667   0.2500000), wk =   0.0092593
        k(   36) = (   0.0416667  -0.0416667   0.4166667), wk =   0.0092593
        k(   37) = (   0.1250000   0.1250000   0.0833333), wk =   0.0092593
        k(   38) = (   0.1250000   0.1250000   0.2500000), wk =   0.0092593
        k(   39) = (   0.1250000   0.1250000   0.4166667), wk =   0.0092593
        k(   40) = (   0.1250000   0.2083333   0.0833333), wk =   0.0185185
        k(   41) = (   0.1250000   0.2083333   0.2500000), wk =   0.0185185
        k(   42) = (   0.1250000   0.2083333   0.4166667), wk =   0.0185185
        k(   43) = (   0.1250000   0.2916667   0.0833333), wk =   0.0185185
        k(   44) = (   0.1250000   0.2916667   0.2500000), wk =   0.0185185
        k(   45) = (   0.1250000   0.2916667   0.4166667), wk =   0.0185185
        k(   46) = (   0.1250000   0.3750000   0.0833333), wk =   0.0185185
        k(   47) = (   0.1250000   0.3750000   0.2500000), wk =   0.0185185
        k(   48) = (   0.1250000   0.3750000   0.4166667), wk =   0.0185185
        k(   49) = (   0.1250000   0.4583333   0.0833333), wk =   0.0185185
        k(   50) = (   0.1250000   0.4583333   0.2500000), wk =   0.0185185
        k(   51) = (   0.1250000   0.4583333   0.4166667), wk =   0.0185185
        k(   52) = (   0.1250000  -0.4583333   0.0833333), wk =   0.0185185
        k(   53) = (   0.1250000  -0.4583333   0.2500000), wk =   0.0185185
        k(   54) = (   0.1250000  -0.4583333   0.4166667), wk =   0.0185185
        k(   55) = (   0.1250000  -0.3750000   0.0833333), wk =   0.0185185
        k(   56) = (   0.1250000  -0.3750000   0.2500000), wk =   0.0185185
        k(   57) = (   0.1250000  -0.3750000   0.4166667), wk =   0.0185185
        k(   58) = (   0.1250000  -0.2916667   0.0833333), wk =   0.0185185
        k(   59) = (   0.1250000  -0.2916667   0.2500000), wk =   0.0185185
        k(   60) = (   0.1250000  -0.2916667   0.4166667), wk =   0.0185185
[...]
        k(  112) = (   0.3750000   0.4583333   0.0833333), wk =   0.0185185
        k(  113) = (   0.3750000   0.4583333   0.2500000), wk =   0.0185185
        k(  114) = (   0.3750000   0.4583333   0.4166667), wk =   0.0185185
        k(  115) = (   0.3750000  -0.4583333   0.0833333), wk =   0.0185185
        k(  116) = (   0.3750000  -0.4583333   0.2500000), wk =   0.0185185
        k(  117) = (   0.3750000  -0.4583333   0.4166667), wk =   0.0185185
        k(  118) = (   0.3750000  -0.3750000   0.0833333), wk =   0.0092593
        k(  119) = (   0.3750000  -0.3750000   0.2500000), wk =   0.0092593
        k(  120) = (   0.3750000  -0.3750000   0.4166667), wk =   0.0092593
        k(  121) = (   0.4583333   0.4583333   0.0833333), wk =   0.0092593
        k(  122) = (   0.4583333   0.4583333   0.2500000), wk =   0.0092593
        k(  123) = (   0.4583333   0.4583333   0.4166667), wk =   0.0092593
        k(  124) = (   0.4583333  -0.4583333   0.0833333), wk =   0.0092593
        k(  125) = (   0.4583333  -0.4583333   0.2500000), wk =   0.0092593
        k(  126) = (   0.4583333  -0.4583333   0.4166667), wk =   0.0092593

     Check: negative core charge=   -0.000032

     Initial potential from superposition of free atoms

     starting charge   15.99953, renormalised to   16.00000
     Starting wfcs are   64 randomized atomic wfcs

     Self-consistent Calculation

     iteration #  1     ecut=    70.00 Ry     beta= 0.70
     Davidson diagonalization with overlap
     ethr =  1.00E-02,  avg # of iterations =  3.0

     total energy              =     -52.91680975 Ry
     Harris-Foulkes estimate   =     -53.46295139 Ry
     estimated scf accuracy    <       0.79133633 Ry

[...]

     total energy              =     -53.18617824 Ry
     Harris-Foulkes estimate   =     -53.18617824 Ry
     estimated scf accuracy    <          2.9E-10 Ry

     iteration # 11     ecut=    70.00 Ry     beta= 0.70
     Davidson diagonalization with overlap
     ethr =  1.81E-12,  avg # of iterations =  3.2

     End of self-consistent calculation

          k = 0.0417 0.0722 0.0313 (  2412 PWs)   bands (ev):

   -13.0765 -12.7821  -1.7380   0.3432   2.6193   2.6476   2.8224   2.8582
     9.5968  14.2223  15.7645  15.8643

     occupation numbers
     1.0000   1.0000   1.0000   1.0000   1.0000   1.0000   1.0000   1.0000
     0.0000   0.0000   0.0000   0.0000

[...]

          k = 0.4583-0.2646 0.1566 (  2420 PWs)   bands (ev):

   -10.0057  -9.9795  -4.2913  -4.2728   0.2773   0.2938   3.1421   3.4462
     9.0007   9.3544  14.2018  14.3200

     occupation numbers
     1.0000   1.0000   1.0000   1.0000   1.0000   1.0000   1.0000   1.0000
     0.0000   0.0000   0.0000   0.0000

     highest occupied, lowest unoccupied level (ev):     4.4224    8.5565

!    total energy              =     -53.18617824 Ry
     Harris-Foulkes estimate   =     -53.18617824 Ry
     estimated scf accuracy    <          1.1E-11 Ry

     The total energy is the sum of the following terms:

     one-electron contribution =     -16.65978300 Ry
     hartree contribution      =      16.40361169 Ry
     xc contribution           =     -16.33682285 Ry
     ewald contribution        =     -36.59318407 Ry

     convergence has been achieved in  11 iterations

     Forces acting on atoms (cartesian axes, Ry/au):

     atom    1 type  1   force =     0.00000000    0.00000000    0.00000000
     atom    2 type  1   force =    -0.00000000   -0.00000000    0.00000000
     atom    3 type  2   force =     0.00000000    0.00000000   -0.00000000
     atom    4 type  2   force =     0.00000000    0.00000000   -0.00000000
     The non-local contrib.  to forces
     atom    1 type  1   force =    -0.00000000   -0.00000000    0.00000000
     atom    2 type  1   force =     0.00000000   -0.00000000    0.00000000
     atom    3 type  2   force =     0.00000000    0.00000000    0.00000000
     atom    4 type  2   force =     0.00000000    0.00000000    0.00000000
     The ionic contribution  to forces
     atom    1 type  1   force =     0.00000002   -0.00000001   -0.00000000
     atom    2 type  1   force =    -0.00000002    0.00000001    0.00000000
     atom    3 type  2   force =     0.00000002   -0.00000001    0.00000000
     atom    4 type  2   force =    -0.00000002    0.00000001   -0.00000000
     The local contribution  to forces
     atom    1 type  1   force =    -0.00000000    0.00000000    0.00000000
     atom    2 type  1   force =     0.00000000   -0.00000000    0.00000000
     atom    3 type  2   force =     0.00000002   -0.00000001   -0.00000001
     atom    4 type  2   force =    -0.00000006    0.00000003   -0.00000001
     The core correction contribution to forces
     atom    1 type  1   force =    -0.00000000    0.00000000    0.00000000
     atom    2 type  1   force =     0.00000000   -0.00000000    0.00000000
     atom    3 type  2   force =     0.00000000    0.00000000    0.00000000
     atom    4 type  2   force =     0.00000000    0.00000000    0.00000000
     The Hubbard contrib.    to forces
     atom    1 type  1   force =     0.00000000    0.00000000    0.00000000
     atom    2 type  1   force =     0.00000000    0.00000000    0.00000000
     atom    3 type  2   force =     0.00000000    0.00000000    0.00000000
     atom    4 type  2   force =     0.00000000    0.00000000    0.00000000
     The SCF correction term to forces
     atom    1 type  1   force =     0.00000000   -0.00000000    0.00000000
     atom    2 type  1   force =    -0.00000000    0.00000000    0.00000000
     atom    3 type  2   force =    -0.00000000    0.00000000    0.00000000
     atom    4 type  2   force =     0.00000000   -0.00000000    0.00000000

     Total force =     0.000000     Total SCF correction =     0.000000

     Computing stress (Cartesian axis) and pressure

          total   stress  (Ry/bohr**3)                   (kbar)     P=      -75.70
  -0.00070604  -0.00000000   0.00000000         -103.86       -0.00        0.00
  -0.00000000  -0.00070604   0.00000000           -0.00     -103.86        0.00
   0.00000000   0.00000000  -0.00013163            0.00        0.00      -19.36

     kinetic stress (kbar)  14598.57     -0.00      0.00
                               -0.00  14598.57      0.00
                               -0.00     -0.00  15904.60

     local   stress (kbar) -19654.86     -0.00     -0.00
                               -0.00 -19654.86     -0.00
                               -0.00     -0.00  19614.42

     nonloc. stress (kbar)  -1635.69     -0.00      0.00
                               -0.00  -1635.69      0.00
                                0.00      0.00  -1615.64

     hartree stress (kbar)   7390.42     -0.00      0.00
                               -0.00   7390.42      0.00
                                0.00      0.00  -4894.88

     exc-cor stress (kbar)  -1775.69      0.00      0.00
                                0.00  -1775.69      0.00
                                0.00      0.00  -1775.69

     corecor stress (kbar)  -1097.70     -0.00     -0.00
                               -0.00  -1097.70     -0.00
                               -0.00     -0.00  -1056.41

     ewald   stress (kbar)   2071.08      0.00      0.00
                                0.00   2071.08      0.00
                                0.00      0.00 -26195.77

     hubbard stress (kbar)      0.00      0.00      0.00
                                0.00      0.00      0.00
                                0.00      0.00      0.00

     london  stress (kbar)      0.00      0.00      0.00
                                0.00      0.00      0.00
                                0.00      0.00      0.00

     DFT-D3  stress (kbar)      0.00      0.00      0.00
                                0.00      0.00      0.00
                                0.00      0.00      0.00

     XDM     stress (kbar)      0.00      0.00      0.00
                                0.00      0.00      0.00
                                0.00      0.00      0.00

     dft-nl  stress (kbar)      0.00      0.00      0.00
                                0.00      0.00      0.00
                                0.00      0.00      0.00

     TS-vdW  stress (kbar)      0.00      0.00      0.00
                                0.00      0.00      0.00
                                0.00      0.00      0.00

     Writing output data file ./BN.save/

     General routines

     Parallel routines

   This run was terminated on:  16:56:56  13Aug2021

   JOB DONE.