     Program PHONON v.6.5 starts on 14Aug2021 at 16:55:20

     K-points division:     npool     =       8

     Reading xml data from directory:

     ./BN.save/

     IMPORTANT: XC functional enforced from input :
     Exchange-correlation= PZ
                           (   1   1   0   0   0   0   0)
     Any further DFT definition will be discarded
     Please, verify this is what you really want

               file b.cpi.UPF: wavefunction(s)  3d 4f renormalized
               file n.cpi.UPF: wavefunction(s)  3d 4f renormalized

     Check: negative core charge=   -0.000032
     Reading collected, re-writing distributed wavefunctions
       19 /  76 q-points for this run, from 58 to 76:
       N       xq(1)         xq(2)         xq(3)
       1   0.000000000   0.000000000   0.000000000
       2   0.000000000   0.000000000   0.062651374
       3   0.000000000   0.000000000   0.125302748
       4   0.000000000   0.000000000  -0.187954122
       5   0.000000000   0.096225045   0.000000000
       6   0.000000000   0.096225045   0.062651374
       7   0.000000000   0.096225045   0.125302748
       8   0.000000000   0.096225045  -0.187954122
       9   0.000000000   0.192450090   0.000000000
      10   0.000000000   0.192450090   0.062651374
      11   0.000000000   0.192450090   0.125302748
      12   0.000000000   0.192450090  -0.187954122
      13   0.000000000   0.288675135   0.000000000
      14   0.000000000   0.288675135   0.062651374
      15   0.000000000   0.288675135   0.125302748
      16   0.000000000   0.288675135  -0.187954122
      17   0.000000000   0.384900179   0.000000000
      18   0.000000000   0.384900179   0.062651374
      19   0.000000000   0.384900179   0.125302748
      20   0.000000000   0.384900179  -0.187954122
      21   0.000000000   0.481125224   0.000000000
      22   0.000000000   0.481125224   0.062651374
      23   0.000000000   0.481125224   0.125302748
      24   0.000000000   0.481125224  -0.187954122
      25   0.000000000  -0.577350269   0.000000000
      26   0.000000000  -0.577350269   0.062651374
      27   0.000000000  -0.577350269   0.125302748
      28   0.000000000  -0.577350269  -0.187954122
      29   0.083333333   0.144337567   0.000000000
      30   0.083333333   0.144337567   0.062651374
      31   0.083333333   0.144337567   0.125302748
      32   0.083333333   0.144337567  -0.187954122
      33   0.083333333   0.240562612   0.000000000
      34   0.083333333   0.240562612   0.062651374
      35   0.083333333   0.240562612   0.125302748
      36   0.083333333   0.240562612  -0.187954122
      37   0.083333333   0.336787657   0.000000000
      38   0.083333333   0.336787657   0.062651374
      39   0.083333333   0.336787657   0.125302748
      40   0.083333333   0.336787657  -0.187954122
      41   0.083333333   0.433012702   0.000000000
      42   0.083333333   0.433012702   0.062651374
      43   0.083333333   0.433012702   0.125302748
      44   0.083333333   0.433012702  -0.187954122
      45   0.083333333   0.529237747   0.000000000
      46   0.083333333   0.529237747   0.062651374
      47   0.083333333   0.529237747   0.125302748
      48   0.083333333   0.529237747  -0.187954122
      49   0.166666667   0.288675135   0.000000000
      50   0.166666667   0.288675135   0.062651374
      51   0.166666667   0.288675135   0.125302748
      52   0.166666667   0.288675135  -0.187954122
      53   0.166666667   0.384900179   0.000000000
      54   0.166666667   0.384900179   0.062651374
      55   0.166666667   0.384900179   0.125302748
      56   0.166666667   0.384900179  -0.187954122
      57   0.166666667   0.481125224   0.000000000
      58   0.166666667   0.481125224   0.062651374
      59   0.166666667   0.481125224   0.125302748
      60   0.166666667   0.481125224  -0.187954122
      61   0.166666667   0.577350269   0.000000000
      62   0.166666667   0.577350269   0.062651374
      63   0.166666667   0.577350269   0.125302748
      64   0.166666667   0.577350269  -0.187954122
      65   0.250000000   0.433012702   0.000000000
      66   0.250000000   0.433012702   0.062651374
      67   0.250000000   0.433012702   0.125302748
      68   0.250000000   0.433012702  -0.187954122
      69   0.250000000   0.529237747   0.000000000
      70   0.250000000   0.529237747   0.062651374
      71   0.250000000   0.529237747   0.125302748
      72   0.250000000   0.529237747  -0.187954122
      73   0.333333333   0.577350269   0.000000000
      74   0.333333333   0.577350269   0.062651374
      75   0.333333333   0.577350269   0.125302748
      76   0.333333333   0.577350269  -0.187954122

     Calculation of q =    0.1666667   0.4811252   0.0626514

     Bands found: reading from ./_ph0/BN.q_58/

     Reading xml data from directory:

     ./_ph0/BN.q_58/BN.save/
     Message from routine qexsd_readschema :
     input info not found or not readable in xml file
     Message from routine readpp:
     file ./_ph0/BN.q_58/BN.save/b.cpi.UPF not found
     Message from routine readpp:
     file ./_ph0/BN.q_58/BN.save/n.cpi.UPF not found

     IMPORTANT: XC functional enforced from input :
     Exchange-correlation= PZ
                           (   1   1   0   0   0   0   0)
     Any further DFT definition will be discarded
     Please, verify this is what you really want

               file b.cpi.UPF: wavefunction(s)  3d 4f renormalized
               file n.cpi.UPF: wavefunction(s)  3d 4f renormalized

     Check: negative core charge=   -0.000032
     read_file_new: Wavefunctions not in collected format?!?
     read_file: Wavefunctions in collected format not available

     Restart in Phonon calculation

     phonons for BN

     bravais-lattice index     =            4
     lattice parameter (alat)  =       4.7319  a.u.
     unit-cell volume          =     244.0890 (a.u.)^3
     number of atoms/cell      =            4
     number of atomic types    =            2
     kinetic-energy cut-off    =      70.0000  Ry
     charge density cut-off    =     280.0000  Ry
     convergence threshold     =      1.0E-14
     beta                      =       0.7000
     number of iterations used =            4
     Exchange-correlation= PZ
                           (   1   1   0   0   0   0   0)

     celldm(1)=    4.73187  celldm(2)=    0.00000  celldm(3)=    2.66022
     celldm(4)=    0.00000  celldm(5)=    0.00000  celldm(6)=    0.00000

     crystal axes: (cart. coord. in units of alat)
               a(1) = (  1.0000  0.0000  0.0000 )
               a(2) = ( -0.5000  0.8660  0.0000 )
               a(3) = (  0.0000  0.0000  2.6602 )

     reciprocal axes: (cart. coord. in units 2 pi/alat)
               b(1) = (  1.0000  0.5774  0.0000 )
               b(2) = (  0.0000  1.1547  0.0000 )
               b(3) = (  0.0000  0.0000  0.3759 )

     Atoms inside the unit cell:

     Cartesian axes

     site n.  atom      mass           positions (alat units)
        1     B   10.8110   tau(    1) = (   -0.00000    0.57735    0.66506  )
        2     B   10.8110   tau(    2) = (    0.50000    0.28868    1.99517  )
        3     N   14.0070   tau(    3) = (   -0.00000    0.57735    1.99517  )
        4     N   14.0070   tau(    4) = (    0.50000    0.28868    0.66506  )

     Computing dynamical matrix for
                    q = (   0.1666667   0.4811252   0.0626514 )

     No symmetry!

     G cutoff =  158.8052  (  19375 G-vectors)     FFT grid: ( 25, 25, 72)
     number of k points=  5184

     PseudoPot. # 1 for B  read from file:
     ./b.cpi.UPF
     MD5 check sum: aadced629ac320abbac2d4088521b25e
     Pseudo is Norm-conserving + core correction, Zval =  3.0
     Generated by new atomic code, or converted to UPF format
     Using radial grid of  453 points,  3 beta functions with:
                l(1) =   0
                l(2) =   1
                l(3) =   2

     PseudoPot. # 2 for N  read from file:
     ./n.cpi.UPF
     MD5 check sum: ff6dad263d6aed986b71703111ab3f52
     Pseudo is Norm-conserving, Zval =  5.0
     Generated by new atomic code, or converted to UPF format
     Using radial grid of  467 points,  3 beta functions with:
                l(1) =   0
                l(2) =   1
                l(3) =   2

     Mode symmetry, C_1 (1)     point group:

     Atomic displacements:
     There are  12 irreducible representations

     Representation     1      1 modes -A  Done

[...]

     Representation    10      1 modes -A  Done

     Representation    11      1 modes -A  To be done

[...]

     Representation # 11 mode #  11

     Self-consistent Calculation

     End of self-consistent calculation

     Convergence has been achieved

[...]

      thresh= 1.000E-02 alpha_mix =  0.700 |ddv_scf|^2 =  6.522E-06

[...]

     Number of q in the star =   24
     List of q in the star:
          1   0.166666667   0.481125224   0.062651374
          2   0.166666667   0.481125224  -0.062651374
          3   0.333333333   0.384900179  -0.062651374
          4   0.333333333   0.384900179   0.062651374
          5  -0.166666667   0.481125224   0.062651374
          6   0.166666667  -0.481125224  -0.062651374
          7  -0.166666667   0.481125224  -0.062651374
          8  -0.166666667  -0.481125224  -0.062651374
          9   0.500000000   0.096225045   0.062651374
         10   0.500000000  -0.096225045   0.062651374
         11  -0.333333333  -0.384900179   0.062651374
         12  -0.500000000  -0.096225045   0.062651374
         13  -0.166666667  -0.481125224   0.062651374
         14   0.333333333  -0.384900179   0.062651374
         15   0.166666667  -0.481125224   0.062651374
         16  -0.500000000   0.096225045   0.062651374
         17  -0.333333333   0.384900179   0.062651374
         18   0.333333333  -0.384900179  -0.062651374
         19   0.500000000   0.096225045  -0.062651374
         20  -0.333333333   0.384900179  -0.062651374
         21  -0.333333333  -0.384900179  -0.062651374
         22   0.500000000  -0.096225045  -0.062651374
         23  -0.500000000  -0.096225045  -0.062651374
         24  -0.500000000   0.096225045  -0.062651374

     Diagonalizing the dynamical matrix

     q = (    0.166666667   0.481125224   0.062651374 )

     freq (    1) =       9.114625 [THz] =     304.031179 [cm-1]
     freq (    2) =       9.267615 [THz] =     309.134366 [cm-1]
     freq (    3) =      18.818661 [THz] =     627.722950 [cm-1]
     freq (    4) =      19.425310 [THz] =     647.958592 [cm-1]
     freq (    5) =      20.380215 [THz] =     679.810807 [cm-1]
     freq (    6) =      20.453816 [THz] =     682.265873 [cm-1]
     freq (    7) =      30.501800 [THz] =    1017.430547 [cm-1]
     freq (    8) =      30.595626 [THz] =    1020.560241 [cm-1]
     freq (    9) =      37.209238 [THz] =    1241.166576 [cm-1]
     freq (   10) =      37.267589 [THz] =    1243.112970 [cm-1]
     freq (   11) =      38.690238 [THz] =    1290.567411 [cm-1]
     freq (   12) =      39.096657 [THz] =    1304.124102 [cm-1]

[...]

     freq (  1 -  1) =        304.0  [cm-1]   --> A
     freq (  2 -  2) =        309.1  [cm-1]   --> A
     freq (  3 -  3) =        627.7  [cm-1]   --> A
     freq (  4 -  4) =        648.0  [cm-1]   --> A
[...]
     freq (  7 -  7) =       1017.4  [cm-1]   --> A
     freq (  8 -  8) =       1020.6  [cm-1]   --> A
     freq (  9 -  9) =       1241.2  [cm-1]   --> A
     freq ( 10 - 10) =       1243.1  [cm-1]   --> A
     freq ( 11 - 11) =       1290.6  [cm-1]   --> A
     freq ( 12 - 12) =       1304.1  [cm-1]   --> A

[...]

     Subspace diagonalization in iterative solution of the eigenvalue problem:
     a serial algorithm will be used

     Title:
     phonons for BN

     bravais-lattice index     =            4
     lattice parameter (alat)  =       4.7319  a.u.
     unit-cell volume          =     244.0890 (a.u.)^3
     number of atoms/cell      =            4
     number of atomic types    =            2
     number of electrons       =        16.00
     number of Kohn-Sham states=           12
     kinetic-energy cutoff     =      70.0000  Ry
     charge density cutoff     =     280.0000  Ry
     Exchange-correlation= PZ
                           (   1   1   0   0   0   0   0)

[...]

     atomic species   valence    mass     pseudopotential
        B              3.00    10.81100     B ( 1.00)
        N              5.00    14.00700     N ( 1.00)

     24 Sym. Ops., with inversion, found

[...]

     site n.     atom                  positions (alat units)
         1           B   tau(   1) = (  -0.0000000   0.5773503   0.6650559  )
         2           B   tau(   2) = (   0.5000000   0.2886751   1.9951677  )
         3           N   tau(   3) = (  -0.0000000   0.5773503   1.9951677  )
         4           N   tau(   4) = (   0.5000000   0.2886751   0.6650559  )

     number of k points=  5184

     Number of k-points >= 100: set verbosity='high' to print them.

     Check: negative core charge=   -0.000032

     The potential is recalculated from file :
     ./_ph0/BN.q_59/BN.save/charge-density

     Starting wfcs are   64 atomic wfcs

     Band Structure Calculation
     Davidson diagonalization with overlap

     ethr =  6.25E-11,  avg # of iterations = 23.0

     End of band structure calculation

     Number of k-points >= 100: set verbosity='high' to print the bands.

     highest occupied, lowest unoccupied level (ev):     4.4224    8.5565

     Writing output data file ./_ph0/BN.q_59/BN.save/

[...]

     Alpha used in Ewald sum =   2.8000

[...]

      2 Sym.Ops. (no q -> -q+G )

[...]

     Representation     1      1 modes -  To be done

[...]

     Mode symmetry, C_2v (mm2)  point group:

[...]

     Representation     1      1 modes -A_1  D_1  S_1  To be done

[...]

     freq (  1 -  1) =        333.3  [cm-1]   --> B_1  D_3  S_3
     freq (  2 -  2) =        337.0  [cm-1]   --> A_2  D_2  S_2
     freq (  3 -  3) =        608.0  [cm-1]   --> A_2  D_2  S_2
     freq (  4 -  4) =        622.2  [cm-1]   --> B_1  D_3  S_3
     freq (  5 -  5) =        698.3  [cm-1]   --> B_2  D_4  S_4
     freq (  6 -  6) =        701.1  [cm-1]   --> A_1  D_1  S_1
     freq (  7 -  7) =       1098.0  [cm-1]   --> B_2  D_4  S_4
     freq (  8 -  8) =       1099.6  [cm-1]   --> A_1  D_1  S_1
     freq (  9 -  9) =       1228.5  [cm-1]   --> A_1  D_1  S_1
     freq ( 10 - 10) =       1235.2  [cm-1]   --> B_2  D_4  S_4
     freq ( 11 - 11) =       1241.6  [cm-1]   --> B_2  D_4  S_4
     freq ( 12 - 12) =       1243.0  [cm-1]   --> A_1  D_1  S_1

[...]

     Mode symmetry, C_s (m)     point group:

[...]

     Representation     1      1 modes -A'  To be done

[...]

     Representation     7      1 modes -A''  To be done

[...]

     freq (  1 -  1) =        333.8  [cm-1]   --> A'
     freq (  2 -  2) =        336.8  [cm-1]   --> A''
     freq (  3 -  3) =        608.9  [cm-1]   --> A''
     freq (  4 -  4) =        621.3  [cm-1]   --> A'
     freq (  5 -  5) =        698.5  [cm-1]   --> A''
     freq (  6 -  6) =        701.0  [cm-1]   --> A'
     freq (  7 -  7) =       1098.1  [cm-1]   --> A''
     freq (  8 -  8) =       1099.5  [cm-1]   --> A'
     freq (  9 -  9) =       1229.1  [cm-1]   --> A'
     freq ( 10 - 10) =       1234.9  [cm-1]   --> A''
     freq ( 11 - 11) =       1241.6  [cm-1]   --> A''
     freq ( 12 - 12) =       1242.9  [cm-1]   --> A'

[...]

     freq (  1 -  1) =        335.0  [cm-1]   --> A'
     freq (  2 -  2) =        336.7  [cm-1]   --> A''
     freq (  3 -  3) =        611.6  [cm-1]   --> A''
     freq (  4 -  4) =        618.8  [cm-1]   --> A'
     freq (  5 -  5) =        699.1  [cm-1]   --> A''
     freq (  6 -  6) =        700.5  [cm-1]   --> A'
     freq (  7 -  7) =       1098.4  [cm-1]   --> A''
     freq (  8 -  8) =       1099.3  [cm-1]   --> A'
     freq (  9 -  9) =       1230.5  [cm-1]   --> A'
     freq ( 10 - 10) =       1233.9  [cm-1]   --> A''
     freq ( 11 - 11) =       1241.8  [cm-1]   --> A''
     freq ( 12 - 12) =       1242.6  [cm-1]   --> A'

[...]

     Representation #  1 modes #   1  2

[...]

     Representation    12      1 modes -B_2  D_4  S_4  To be done

[...]

     Mode symmetry, C_2v (mm2)  point group:

     freq (  1 -  1) =        294.2  [cm-1]   --> A_2  D_2  S_2
     freq (  2 -  2) =        300.5  [cm-1]   --> B_2  D_4  S_4
     freq (  3 -  3) =        627.8  [cm-1]   --> B_2  D_4  S_4
     freq (  4 -  4) =        652.6  [cm-1]   --> A_2  D_2  S_2
     freq (  5 -  5) =        739.0  [cm-1]   --> B_1  D_3  S_3
     freq (  6 -  6) =        742.5  [cm-1]   --> A_1  D_1  S_1
     freq (  7 -  7) =        962.8  [cm-1]   --> A_1  D_1  S_1
     freq (  8 -  8) =        965.3  [cm-1]   --> B_1  D_3  S_3
     freq (  9 -  9) =       1242.8  [cm-1]   --> B_1  D_3  S_3
     freq ( 10 - 10) =       1245.9  [cm-1]   --> A_1  D_1  S_1
     freq ( 11 - 11) =       1291.5  [cm-1]   --> B_1  D_3  S_3
     freq ( 12 - 12) =       1308.0  [cm-1]   --> A_1  D_1  S_1

[...]

     freq (  1 -  1) =        294.9  [cm-1]   --> A''
     freq (  2 -  2) =        299.9  [cm-1]   --> A'
     freq (  3 -  3) =        629.5  [cm-1]   --> A'
     freq (  4 -  4) =        651.0  [cm-1]   --> A''
     freq (  5 -  5) =        739.3  [cm-1]   --> A''
     freq (  6 -  6) =        742.3  [cm-1]   --> A'
     freq (  7 -  7) =        963.0  [cm-1]   --> A'
     freq (  8 -  8) =        965.2  [cm-1]   --> A''
     freq (  9 -  9) =       1243.0  [cm-1]   --> A''
     freq ( 10 - 10) =       1245.7  [cm-1]   --> A'
     freq ( 11 - 11) =       1292.7  [cm-1]   --> A''
     freq ( 12 - 12) =       1306.9  [cm-1]   --> A'

[...]

     freq (  1 -  1) =        296.4  [cm-1]   --> A''
     freq (  2 -  2) =        299.2  [cm-1]   --> A'
     freq (  3 -  3) =        634.3  [cm-1]   --> A'
     freq (  4 -  4) =        646.7  [cm-1]   --> A''
     freq (  5 -  5) =        739.9  [cm-1]   --> A''
     freq (  6 -  6) =        741.7  [cm-1]   --> A'
     freq (  7 -  7) =        963.5  [cm-1]   --> A'
     freq (  8 -  8) =        964.7  [cm-1]   --> A''
     freq (  9 -  9) =       1243.6  [cm-1]   --> A''
     freq ( 10 - 10) =       1245.1  [cm-1]   --> A'
     freq ( 11 - 11) =       1295.7  [cm-1]   --> A''
     freq ( 12 - 12) =       1303.9  [cm-1]   --> A'

[...]

     Mode symmetry, C_s (m)     point group:

     freq (  1 -  1) =        332.3  [cm-1]   --> A''
     freq (  2 -  2) =        336.5  [cm-1]   --> A''
     freq (  3 -  3) =        600.1  [cm-1]   --> A''
     freq (  4 -  4) =        613.2  [cm-1]   --> A''
     freq (  5 -  5) =        805.0  [cm-1]   --> A'
     freq (  6 -  6) =        808.5  [cm-1]   --> A'
     freq (  7 -  7) =       1040.1  [cm-1]   --> A'
     freq (  8 -  8) =       1043.7  [cm-1]   --> A'
     freq (  9 -  9) =       1205.8  [cm-1]   --> A'
     freq ( 10 - 10) =       1214.7  [cm-1]   --> A'
     freq ( 11 - 11) =       1244.8  [cm-1]   --> A'
     freq ( 12 - 12) =       1248.2  [cm-1]   --> A'

[...]

     No symmetry!

[...]

     Representation    12      1 modes -A  To be done

[...]

     Mode symmetry, C_1 (1)     point group:

     freq (  1 -  1) =        334.0  [cm-1]   --> A
     freq (  2 -  2) =        336.2  [cm-1]   --> A
     freq (  3 -  3) =        603.5  [cm-1]   --> A
     freq (  4 -  4) =        610.0  [cm-1]   --> A
     freq (  5 -  5) =        805.9  [cm-1]   --> A
     freq (  6 -  6) =        807.6  [cm-1]   --> A
     freq (  7 -  7) =       1041.1  [cm-1]   --> A
     freq (  8 -  8) =       1042.9  [cm-1]   --> A
     freq (  9 -  9) =       1208.2  [cm-1]   --> A
     freq ( 10 - 10) =       1212.6  [cm-1]   --> A
     freq ( 11 - 11) =       1245.6  [cm-1]   --> A
     freq ( 12 - 12) =       1247.4  [cm-1]   --> A

[...]

     Mode symmetry, D_3h (-62m) point group:

[...]

     Representation     1      1 modes -A'_1  To be done

[...]

     Representation     4      1 modes -A'_2  To be done

[...]

     Representation     6      2 modes -E'  To be done

[...]

     Representation     8      2 modes -E''  To be done

[...]

     Mode symmetry, D_3h (-62m) point group:

     freq (  1 -  2) =        345.0  [cm-1]   --> E''
     freq (  3 -  4) =        593.9  [cm-1]   --> E''
     freq (  5 -  5) =        870.0  [cm-1]   --> A'_2
     freq (  6 -  6) =        873.9  [cm-1]   --> A'_1
     freq (  7 -  8) =       1043.7  [cm-1]   --> E'
     freq (  9 - 10) =       1166.6  [cm-1]   --> E'
     freq ( 11 - 11) =       1244.4  [cm-1]   --> A'_2
     freq ( 12 - 12) =       1248.1  [cm-1]   --> A'_1

[...]

     Mode symmetry, C_3v (3m)   point group:

[...]

     Representation     1      1 modes -A_1  L_1  To be done

[...]

     Representation     5      2 modes -E    L_3  To be done

[...]

     freq (  1 -  2) =        345.0  [cm-1]   --> E    L_3
     freq (  3 -  4) =        593.9  [cm-1]   --> E    L_3
     freq (  5 -  5) =        870.3  [cm-1]   --> A_2  L_2
     freq (  6 -  6) =        873.6  [cm-1]   --> A_1  L_1
     freq (  7 -  8) =       1043.7  [cm-1]   --> E    L_3
     freq (  9 - 10) =       1166.7  [cm-1]   --> E    L_3
     freq ( 11 - 11) =       1244.7  [cm-1]   --> A_2  L_2
     freq ( 12 - 12) =       1247.8  [cm-1]   --> A_1  L_1

[...]

     Representation     4      1 modes -A_2  L_2  To be done

[...]

     Representation     8      2 modes -E    L_3  To be done

[...]

     Representation #  4 mode #   4

[...]

     Mode symmetry, C_3v (3m)   point group:

     freq (  1 -  2) =        345.6  [cm-1]   --> E    L_3
     freq (  3 -  4) =        593.8  [cm-1]   --> E    L_3
     freq (  5 -  5) =        871.0  [cm-1]   --> A_2  L_2
     freq (  6 -  6) =        872.9  [cm-1]   --> A_1  L_1
     freq (  7 -  8) =       1043.7  [cm-1]   --> E    L_3
     freq (  9 - 10) =       1166.7  [cm-1]   --> E    L_3
     freq ( 11 - 11) =       1245.3  [cm-1]   --> A_2  L_2
     freq ( 12 - 12) =       1247.2  [cm-1]   --> A_1  L_1

     Calculation of q =    0.3333333   0.5773503  -0.1879541

     Title:
     phonons for BN

     bravais-lattice index     =            4
     lattice parameter (alat)  =       4.7319  a.u.
     unit-cell volume          =     244.0890 (a.u.)^3
     number of atoms/cell      =            4
     number of atomic types    =            2
     number of electrons       =        16.00
     number of Kohn-Sham states=           12
     kinetic-energy cutoff     =      70.0000  Ry
     charge density cutoff     =     280.0000  Ry
     Exchange-correlation= PZ
                           (   1   1   0   0   0   0   0)

[...]

     atomic species   valence    mass     pseudopotential
        B              3.00    10.81100     B ( 1.00)
        N              5.00    14.00700     N ( 1.00)

     24 Sym. Ops., with inversion, found

[...]

     site n.     atom                  positions (alat units)
         1           B   tau(   1) = (  -0.0000000   0.5773503   0.6650559  )
         2           B   tau(   2) = (   0.5000000   0.2886751   1.9951677  )
         3           N   tau(   3) = (  -0.0000000   0.5773503   1.9951677  )
         4           N   tau(   4) = (   0.5000000   0.2886751   0.6650559  )

     number of k points=   468

     Number of k-points >= 100: set verbosity='high' to print them.

     Check: negative core charge=   -0.000032

     The potential is recalculated from file :
     ./_ph0/BN.q_76/BN.save/charge-density

     Starting wfcs are   64 atomic wfcs

     Band Structure Calculation
     Davidson diagonalization with overlap

     ethr =  6.25E-11,  avg # of iterations = 23.0

     End of band structure calculation

     Number of k-points >= 100: set verbosity='high' to print the bands.

     highest occupied, lowest unoccupied level (ev):     4.4224    8.5565

     Writing output data file ./_ph0/BN.q_76/BN.save/

     phonons for BN

     bravais-lattice index     =            4
     lattice parameter (alat)  =       4.7319  a.u.
     unit-cell volume          =     244.0890 (a.u.)^3
     number of atoms/cell      =            4
     number of atomic types    =            2
     kinetic-energy cut-off    =      70.0000  Ry
     charge density cut-off    =     280.0000  Ry
     convergence threshold     =      1.0E-14
     beta                      =       0.7000
     number of iterations used =            4
     Exchange-correlation= PZ
                           (   1   1   0   0   0   0   0)

     celldm(1)=    4.73187  celldm(2)=    0.00000  celldm(3)=    2.66022
     celldm(4)=    0.00000  celldm(5)=    0.00000  celldm(6)=    0.00000

     crystal axes: (cart. coord. in units of alat)
               a(1) = (  1.0000  0.0000  0.0000 )
               a(2) = ( -0.5000  0.8660  0.0000 )
               a(3) = (  0.0000  0.0000  2.6602 )

     reciprocal axes: (cart. coord. in units 2 pi/alat)
               b(1) = (  1.0000  0.5774  0.0000 )
               b(2) = (  0.0000  1.1547  0.0000 )
               b(3) = (  0.0000  0.0000  0.3759 )

     Atoms inside the unit cell:

     Cartesian axes

     site n.  atom      mass           positions (alat units)
        1     B   10.8110   tau(    1) = (   -0.00000    0.57735    0.66506  )
        2     B   10.8110   tau(    2) = (    0.50000    0.28868    1.99517  )
        3     N   14.0070   tau(    3) = (   -0.00000    0.57735    1.99517  )
        4     N   14.0070   tau(    4) = (    0.50000    0.28868    0.66506  )

     Computing dynamical matrix for
                    q = (   0.3333333   0.5773503  -0.1879541 )

     12 Sym.Ops. (no q -> -q+G )

     G cutoff =  158.8052  (  19375 G-vectors)     FFT grid: ( 25, 25, 72)
     number of k points=   468

     PseudoPot. # 1 for B  read from file:
     ./b.cpi.UPF
     MD5 check sum: aadced629ac320abbac2d4088521b25e
     Pseudo is Norm-conserving + core correction, Zval =  3.0
     Generated by new atomic code, or converted to UPF format
     Using radial grid of  453 points,  3 beta functions with:
                l(1) =   0
                l(2) =   1
                l(3) =   2

     PseudoPot. # 2 for N  read from file:
     ./n.cpi.UPF
     MD5 check sum: ff6dad263d6aed986b71703111ab3f52
     Pseudo is Norm-conserving, Zval =  5.0
     Generated by new atomic code, or converted to UPF format
     Using radial grid of  467 points,  3 beta functions with:
                l(1) =   0
                l(2) =   1
                l(3) =   2

     Atomic displacements:
     There are   6 irreducible representations

[...]

     Representation     6      2 modes -  To be done

     Alpha used in Ewald sum =   2.8000

[...]

     Representation #  6 modes #  11 12

     Self-consistent Calculation

[...]

      thresh= 5.766E-08 alpha_mix =  0.700 |ddv_scf|^2 =  3.057E-16

     End of self-consistent calculation

     Convergence has been achieved

     Number of q in the star =    2
     List of q in the star:
          1   0.333333333   0.577350269  -0.187954122
          2  -0.333333333  -0.577350269  -0.187954122

     Diagonalizing the dynamical matrix

     q = (    0.333333333   0.577350269  -0.187954122 )

     freq (    1) =      10.372542 [THz] =     345.990751 [cm-1]
     freq (    2) =      10.372542 [THz] =     345.990751 [cm-1]
     freq (    3) =      17.802243 [THz] =     593.818903 [cm-1]
     freq (    4) =      17.802243 [THz] =     593.818903 [cm-1]
     freq (    5) =      26.143635 [THz] =     872.057804 [cm-1]
     freq (    6) =      26.143635 [THz] =     872.057804 [cm-1]
     freq (    7) =      31.289668 [THz] =    1043.710973 [cm-1]
     freq (    8) =      31.289668 [THz] =    1043.710973 [cm-1]
     freq (    9) =      34.977563 [THz] =    1166.725929 [cm-1]
     freq (   10) =      34.977563 [THz] =    1166.725929 [cm-1]
     freq (   11) =      37.363868 [THz] =    1246.324488 [cm-1]
     freq (   12) =      37.363868 [THz] =    1246.324488 [cm-1]

     General routines

     Parallel routines

     INITIALIZATION:

     DYNAMICAL MATRIX:

      General routines

   This run was terminated on:  23:30:20  14Aug2021

   JOB DONE.